/* Função Objetivo */

min:
3.00 x2_1  + 6.08 x3_1  + 3.16 x3_2   +
8.06 x4_1  + 5.10 x4_2  + 2.00 x4_3   +
4.12 x5_1  + 1.41 x5_2  + 2.83 x5_3   + 4.47 x5_4  +
3.00 x6_1  + 4.24 x6_2  + 7.21 x6_3   + 8.94 x6_4  +
4.47 x6_5  + 7.21 x8_1  + 6.08 x8_2   + 7.28 x8_3  +
8.06 x8_4  + 5.00 x8_5  + 5.00 x8_6   + 7.00 x9_1  +
7.62 x9_2  + 10.00 x9_3 + 11.31 x9_4  + 7.21 x9_5  +
4.00 x9_6  + 4.12 x9_8  + 7.28 x10_1  + 7.07 x10_2 +
8.94 x10_3 + 10.00 x10_4 + 6.32 x10_5 + 4.47 x10_6 +
2.24 x10_8 + 2.00 x10_9 + 8.60 x11_1  + 7.28 x11_2 +
8.06 x11_3 + 8.54 x11_4  + 6.08 x11_5 + 6.40 x11_6 +
1.41 x11_8 + 5.00 x11_9 + 3.00 x11_10 +10.63 x12_1 +
8.60 x12_2 + 8.25 x12_3 + 8.00 x12_4  + 7.21 x12_5 +
8.94 x12_6 + 4.12 x12_8 + 8.00 x12_9 + 6.00 x12_10 +
3.00 x12_11 + 5.00 x13_1 + 3.16 x13_2 + 4.47 x13_3 +
5.66 x13_4  + 2.00 x13_5 + 4.00 x13_6 + 3.00 x13_8 +
5.66 x13_9 + 4.47 x13_10 + 4.12 x13_11 + 5.66 x13_12;

/* Restrições */

v1 : x2_1 + x3_1 + x4_1 + x5_1 + x6_1 + x8_1 + x9_1 + x10_1 + x11_1 + x12_1 + x13_1 = 1;
v2 : x2_1 + x3_2 + x4_2 + x5_2 + x6_2 + x8_2 + x9_2 + x10_2 + x11_2 + x12_2 + x13_2 = 1;
v3 : x3_1 + x3_2 + x4_3 + x5_3 + x6_3 + x8_3 + x9_3 + x10_3 + x11_3 + x12_3 + x13_3 = 1;
v4 : x4_2 + x4_3 + x4_1 + x5_4 + x6_4 + x8_4 + x9_4 + x10_4 + x11_4 + x12_4 + x13_4 = 1;
v5 : x5_1 + x5_2 + x5_3 + x5_4 + x6_5 + x8_5 + x9_5 + x10_5 + x11_5 + x12_5 + x13_5 = 1;
v6 : x6_1 + x6_2 + x6_3 + x6_4 + x6_5 + x8_6 + x9_6 + x10_6 + x11_6 + x12_6 + x13_6 = 1;
v8 : x8_1 + x8_2 + x8_3 + x8_4 + x8_5 + x8_6 + x9_8 + x10_8 + x11_8 + x12_8 + x13_8 = 1;
v9 : x9_1 + x9_2 + x9_3 + x9_4 + x9_5 + x9_6 + x9_8 + x10_9 + x11_9 + x12_9 + x13_9 = 1;
v10 : x10_1 + x10_2 + x10_3 + x10_4 + x10_5 + x10_6 + x10_8 + x10_9 + x11_10 + x12_10 + x13_10 = 1;
v11 : x11_1 + x11_2 + x11_3 + x11_4 + x11_5 + x11_6 + x11_8 + x11_9 + x11_10 + x12_11 + x13_11 = 1;
v12 : x12_1 + x12_2 + x12_3 + x12_4 + x12_5 + x12_6 + x12_8 + x12_9 + x12_10 + x12_11 + x13_12 = 1;
v13 : x13_1 + x13_2 + x13_3 + x13_4 + x13_5 + x13_6 + x13_8 + x13_9 + x13_10 + x13_11 + x13_12 = 1;

/* Defenição das variaveis */

bin x2_1 x3_1 x3_2 x4_1 x4_2 x4_3 x5_1 x5_2 x5_3 x5_4 x6_1 x6_2 x6_3 x6_4 x6_5 x8_1
    x8_2 x8_3 x8_4 x8_5 x8_6 x9_1 x9_2 x9_3 x9_4 x9_5 x9_6 x9_8 x10_1
    x10_2 x10_3 x10_4 x10_5 x10_6 x10_8 x10_9 x11_1 x11_2 x11_3 x11_4
    x11_5 x11_6 x11_8 x11_9 x11_10 x12_1 x12_2 x12_3 x12_4 x12_5 x12_6 x12_8
    x12_9 x12_10 x12_11 x13_1 x13_2 x13_3 x13_4 x13_5 x13_6 x13_8 x13_9 x13_10 x13_11 x13_12;